
Gurobi 11.0.3 (linux64) logging started Mon 18 Nov 2024 07:24:34 PM CST

Set parameter LogFile to value "/home/dlcole3/graph_abstraction/hierarchical_graphs/git_storage/CS1/HP_low_reserves/gurobi_logs/serial/logfile_ST3_2.log"

Gurobi 11.0.3 (linux64) logging started Mon 18 Nov 2024 07:25:50 PM CST

Set parameter LogFile to value "/home/dlcole3/graph_abstraction/hierarchical_graphs/git_storage/CS1/HP_low_reserves/gurobi_logs/serial/logfile_ST3_2.log"
Gurobi Optimizer version 11.0.3 build v11.0.3rc0 (linux64 - "Ubuntu 18.04.3 LTS")

CPU model: Intel(R) Xeon(R) CPU E5-2698 v4 @ 2.20GHz, instruction set [SSE2|AVX|AVX2]
Thread count: 40 physical cores, 80 logical processors, using up to 20 threads

Optimize a model with 29168 rows, 50688 columns and 136175 nonzeros
Model fingerprint: 0x26ae4c22
Variable types: 46944 continuous, 3744 integer (3744 binary)
Coefficient statistics:
  Matrix range     [6e-01, 2e+04]
  Objective range  [2e+00, 2e+04]
  Bounds range     [5e-02, 2e+05]
  RHS range        [5e-02, 7e+03]
Presolve removed 14248 rows and 38606 columns
Presolve time: 0.37s
Presolved: 14920 rows, 12082 columns, 63935 nonzeros
Variable types: 9037 continuous, 3045 integer (3045 binary)
Found heuristic solution: objective 188576.22156

Root relaxation: objective 5.271870e+04, 8570 iterations, 0.40 seconds (0.30 work units)

    Nodes    |    Current Node    |     Objective Bounds      |     Work
 Expl Unexpl |  Obj  Depth IntInf | Incumbent    BestBd   Gap | It/Node Time

     0     0 52718.7039    0   27 188576.222 52718.7039  72.0%     -    1s
H    0     0                    188552.06755 52718.7039  72.0%     -    1s
H    0     0                    55247.409672 52718.7039  4.58%     -    1s
     0     0 52718.7039    0   27 55247.4097 52718.7039  4.58%     -    1s
     0     0 52718.7039    0   22 55247.4097 52718.7039  4.58%     -    2s
H    0     0                    55247.409636 52718.7039  4.58%     -    2s
H    0     0                    55247.409605 52718.7039  4.58%     -    2s
H    0     0                    55247.409519 52718.7039  4.58%     -    2s
     0     0 52718.7039    0   27 55247.4095 52718.7039  4.58%     -    3s
     0     0 52739.0797    0   22 55247.4095 52739.0797  4.54%     -    3s
H    0     0                    53695.928200 52803.6504  1.66%     -    3s
H    0     0                    53497.996786 52803.6504  1.30%     -    3s
     0     0 52803.6504    0   22 53497.9968 52803.6504  1.30%     -    3s
     0     0 52803.6504    0   17 53497.9968 52803.6504  1.30%     -    4s
H    0     0                    53497.996780 52803.6504  1.30%     -    4s
     0     0 52803.6504    0   20 53497.9968 52803.6504  1.30%     -    4s
     0     0 52803.6504    0   18 53497.9968 52803.6504  1.30%     -    4s
     0     0 52805.6721    0   28 53497.9968 52805.6721  1.29%     -    4s
     0     0 52805.6721    0   20 53497.9968 52805.6721  1.29%     -    4s
     0     2 52805.6721    0   20 53497.9968 52805.6721  1.29%     -    5s

Cutting planes:
  Gomory: 2

Explored 35 nodes (22773 simplex iterations) in 5.30 seconds (3.24 work units)
Thread count was 20 (of 80 available processors)

Solution count 7: 53498 53498 53695.9 ... 188576

Optimal solution found (tolerance 3.00e-03)
Best objective 5.349799678363e+04, best bound 5.341861639947e+04, gap 0.1484%

User-callback calls 1963, time in user-callback 0.00 sec
